
Log started (V11.0.0) Tue May 13 17:38:19 2008

Tried aggregator 1 time.
Reduced MIP has 110 rows, 1001 columns, and 2010 nonzeros.
Presolve time =    0.00 sec.
Clique table members: 100.
MIP emphasis: balance optimality and feasibility.
MIP search method: dynamic search.
Parallel mode: none, using 1 thread.
Root relaxation solution time =    0.02 sec.

        Nodes                                         Cuts/
   Node  Left     Objective  IInf  Best Integer     Best Node    ItCnt     Gap

*     0+    0                         7677.0000      285.6055      130   96.28%
*     0+    0                          313.0000      285.6055      130    8.75%
      0     0      287.3670    20      313.0000      Fract: 6      167    8.19%
      0     0      290.3167    29      313.0000      Cuts: 12      236    7.25%
*     0+    0                          311.0000      290.3167      236    6.65%
      0     0      292.5975    32      311.0000    MIRcuts: 6      281    5.92%
*     0+    0                          309.0000      292.5975      281    5.31%
      0     0      292.6013    40      309.0000       Cuts: 6      290    5.31%
      0     0      292.7557    34      309.0000       Cuts: 5      316    5.26%
      0     0      292.7672    37      309.0000       Cuts: 5      334    5.25%
*     0+    0                          308.0000      292.7672      334    4.95%
*     0+    0                          305.0000      292.7672      334    4.01%
      0     2      293.0000    33      305.0000      292.7672      334    4.01%
*    70+   49                          304.0000      293.0000     3139    3.62%
*   100+   71                          303.0000      293.0000     4036    3.30%
    100    73      293.0000    20      303.0000      293.0000     4036    3.30%
    200   128      294.0000    17      303.0000      293.0000     7962    3.30%
    300   190      298.0000    14      303.0000      293.0000     9511    3.30%
    400   219      293.0000    22      303.0000      293.0000    10092    3.30%
    500   304      299.0000    12      303.0000      298.5022    12129    1.48%
*   501+  205                          302.0000      298.5022    12135    1.16%
*   510   144      integral     0      301.0000      298.5022    12261    0.83%
    600   130    infeasible            301.0000      299.0000    14398    0.66%
*   610+   72                          300.0000      299.0000    14976    0.33%
    700    22      299.0000    13      300.0000      299.0000    22685    0.33%
    800    15    infeasible            300.0000      299.0000    25881    0.33%

Cover cuts applied:  73
Mixed integer rounding cuts applied:  10
Gomory fractional cuts applied:  4

Solution pool: 11 solutions saved.

MIP - Integer optimal solution:  Objective = 3.0000000000e+002
Solution time =    4.55 sec.  Iterations = 30139  Nodes = 835


Incumbent solution
Variable Name           Solution Value
Cmax                        300.000000
X_1_9                         1.000000
X_2_8                         1.000000
X_3_1                         1.000000
X_4_1                         1.000000
X_5_1                         1.000000
X_6_1                         1.000000
X_7_4                         1.000000
X_8_1                         1.000000
X_9_1                         1.000000
X_10_7                        1.000000
X_11_1                        1.000000
X_12_1                        1.000000
X_13_8                        1.000000
X_14_10                       1.000000
X_15_1                        1.000000
X_16_8                        1.000000
X_17_1                        1.000000
X_18_1                        1.000000
X_19_8                        1.000000
X_20_1                        1.000000
X_21_1                        1.000000
X_22_8                        1.000000
X_23_10                       1.000000
X_24_10                       1.000000
X_25_9                        1.000000
X_26_1                        1.000000
X_27_7                        1.000000
X_28_8                        1.000000
X_29_8                        1.000000
X_30_1                        1.000000
X_31_9                        1.000000
X_32_3                        1.000000
X_33_1                        1.000000
X_34_1                        1.000000
X_35_1                        1.000000
X_36_1                        1.000000
X_37_2                        1.000000
X_38_1                        1.000000
X_39_1                        1.000000
X_40_1                        1.000000
X_41_4                        1.000000
X_42_8                        1.000000
X_43_1                        1.000000
X_44_8                        1.000000
X_45_1                        1.000000
X_46_8                        1.000000
X_47_1                        1.000000
X_48_4                        1.000000
X_49_8                        1.000000
X_50_5                        1.000000
X_51_9                        1.000000
X_52_1                        1.000000
X_53_3                        1.000000
X_54_2                        1.000000
X_55_1                        1.000000
X_56_1                        1.000000
X_57_6                        1.000000
X_58_8                        1.000000
X_59_2                        1.000000
X_60_8                        1.000000
X_61_1                        1.000000
X_62_1                        1.000000
X_63_3                        1.000000
X_64_7                        1.000000
X_65_1                        1.000000
X_66_5                        1.000000
X_67_8                        1.000000
X_68_4                        1.000000
X_69_8                        1.000000
X_70_1                        1.000000
X_71_1                        1.000000
X_72_5                        1.000000
X_73_1                        1.000000
X_74_5                        1.000000
X_75_1                        1.000000
X_76_1                        1.000000
X_77_2                        1.000000
X_78_4                        1.000000
X_79_1                        1.000000
X_80_1                        1.000000
X_81_1                        1.000000
X_82_5                        1.000000
X_83_10                       1.000000
X_84_4                        1.000000
X_85_7                        1.000000
X_86_7                        1.000000
X_87_1                        1.000000
X_88_1                        1.000000
X_89_1                        1.000000
X_90_1                        1.000000
X_91_5                        1.000000
X_92_1                        1.000000
X_93_1                        1.000000
X_94_8                        1.000000
X_95_2                        1.000000
X_96_5                        1.000000
X_97_6                        1.000000
X_98_8                        1.000000
X_99_1                        1.000000
X_100_1                       1.000000
All other variables in the range 1-1001 are 0.
